 
data_c:\users\tatsum~1.och\cu-1425\cu-1425 
 
_audit_creation_method            SHELXL-97 
_chemical_name_systematic 
; 
 ? 
; 
_chemical_name_common             ? 
_chemical_melting_point           ? 
_chemical_formula_moiety          ? 
_chemical_formula_sum 
 'C54 H72 F2 Ge2 K0 N6' 
_chemical_formula_weight          988.36 
 
loop_ 
 _atom_type_symbol 
 _atom_type_description 
 _atom_type_scat_dispersion_real 
 _atom_type_scat_dispersion_imag 
 _atom_type_scat_source 
 'C'  'C'   0.0181   0.0091 
 'International Tables Vol C Tables 4.2.6.8 and 6.1.1.4' 
 'H'  'H'   0.0000   0.0000 
 'International Tables Vol C Tables 4.2.6.8 and 6.1.1.4' 
 'N'  'N'   0.0311   0.0180 
 'International Tables Vol C Tables 4.2.6.8 and 6.1.1.4' 
 'F'  'F'   0.0727   0.0534 
 'International Tables Vol C Tables 4.2.6.8 and 6.1.1.4' 
 'K'  'K'   0.3868   1.0657 
 'International Tables Vol C Tables 4.2.6.8 and 6.1.1.4' 
 'Ge'  'Ge'  -1.0885   0.8855 
 'International Tables Vol C Tables 4.2.6.8 and 6.1.1.4' 
 
_symmetry_cell_setting            ? 
_symmetry_space_group_name_H-M    ? 
 
loop_ 
 _symmetry_equiv_pos_as_xyz 
 'x, y, z' 
 '-x+1/2, y+1/2, -z+1/2' 
 '-x, -y, -z' 
 'x-1/2, -y-1/2, z-1/2' 
 
_cell_length_a                    14.49880(10) 
_cell_length_b                    12.18570(10) 
_cell_length_c                    15.0468(2) 
_cell_angle_alpha                 90.00 
_cell_angle_beta                  97.9460(10) 
_cell_angle_gamma                 90.00 
_cell_volume                      2632.91(4) 
_cell_formula_units_Z             2 
_cell_measurement_temperature     173(2) 
_cell_measurement_reflns_used     ? 
_cell_measurement_theta_min       ? 
_cell_measurement_theta_max       ? 
 
_exptl_crystal_description        ? 
_exptl_crystal_colour             ? 
_exptl_crystal_size_max           ? 
_exptl_crystal_size_mid           ? 
_exptl_crystal_size_min           ? 
_exptl_crystal_density_meas       ? 
_exptl_crystal_density_diffrn     1.247 
_exptl_crystal_density_method     'not measured' 
_exptl_crystal_F_000              1040 
_exptl_absorpt_coefficient_mu     1.771 
_exptl_absorpt_correction_type    ? 
_exptl_absorpt_correction_T_min   ? 
_exptl_absorpt_correction_T_max   ? 
_exptl_absorpt_process_details    ? 
 
_exptl_special_details 
; 
 ? 
; 
 
_diffrn_ambient_temperature       173(2) 
_diffrn_radiation_wavelength      1.54184 
_diffrn_radiation_type            CuK\a 
_diffrn_radiation_source          'fine-focus sealed tube' 
_diffrn_radiation_monochromator   graphite 
_diffrn_measurement_device_type   ? 
_diffrn_measurement_method        ? 
_diffrn_detector_area_resol_mean  ? 
_diffrn_standards_number          ? 
_diffrn_standards_interval_count  ? 
_diffrn_standards_interval_time   ? 
_diffrn_standards_decay_%         ? 
_diffrn_reflns_number             16422 
_diffrn_reflns_av_R_equivalents   0.0220 
_diffrn_reflns_av_sigmaI/netI     0.0169 
_diffrn_reflns_limit_h_min        -17 
_diffrn_reflns_limit_h_max        11 
_diffrn_reflns_limit_k_min        -13 
_diffrn_reflns_limit_k_max        14 
_diffrn_reflns_limit_l_min        -17 
_diffrn_reflns_limit_l_max        18 
_diffrn_reflns_theta_min          3.97 
_diffrn_reflns_theta_max          67.49 
_reflns_number_total              4744 
_reflns_number_gt                 4431 
_reflns_threshold_expression      >2sigma(I) 
 
_computing_data_collection        ? 
_computing_cell_refinement        ? 
_computing_data_reduction         ? 
_computing_structure_solution     'SHELXS-97 (Sheldrick, 1990)' 
_computing_structure_refinement   'SHELXL-97 (Sheldrick, 1997)' 
_computing_molecular_graphics     ? 
_computing_publication_material   ? 
 
_refine_special_details 
; 
 Refinement of F^2^ against ALL reflections.  The weighted R-factor wR and 
 goodness of fit S are based on F^2^, conventional R-factors R are based 
 on F, with F set to zero for negative F^2^. The threshold expression of 
 F^2^ > 2sigma(F^2^) is used only for calculating R-factors(gt) etc. and is 
 not relevant to the choice of reflections for refinement.  R-factors based 
 on F^2^ are statistically about twice as large as those based on F, and R- 
 factors based on ALL data will be even larger. 
; 
 
_refine_ls_structure_factor_coef  Fsqd  
_refine_ls_matrix_type            full 
_refine_ls_weighting_scheme       calc  
_refine_ls_weighting_details 
 'calc w=1/[\s^2^(Fo^2^)+(0.0725P)^2^+2.4534P] where P=(Fo^2^+2Fc^2^)/3' 
_atom_sites_solution_primary      direct 
_atom_sites_solution_secondary    difmap 
_atom_sites_solution_hydrogens    geom 
_refine_ls_hydrogen_treatment     mixed 
_refine_ls_extinction_method      none 
_refine_ls_extinction_coef        ? 
_refine_ls_number_reflns          4744 
_refine_ls_number_parameters      297 
_refine_ls_number_restraints      0 
_refine_ls_R_factor_all           0.0445 
_refine_ls_R_factor_gt            0.0422 
_refine_ls_wR_factor_ref          0.1214 
_refine_ls_wR_factor_gt           0.1187 
_refine_ls_goodness_of_fit_ref    1.013 
_refine_ls_restrained_S_all       1.013 
_refine_ls_shift/su_max           0.001 
_refine_ls_shift/su_mean          0.000 
 
loop_ 
 _atom_site_label 
 _atom_site_type_symbol 
 _atom_site_fract_x 
 _atom_site_fract_y 
 _atom_site_fract_z 
 _atom_site_U_iso_or_equiv 
 _atom_site_adp_type 
 _atom_site_occupancy 
 _atom_site_symmetry_multiplicity 
 _atom_site_calc_flag 
 _atom_site_refinement_flags 
 _atom_site_disorder_assembly 
 _atom_site_disorder_group 
Ge1 Ge 0.540723(19) 0.57928(3) 0.075012(19) 0.04052(14) Uani 1 1 d . . . 
F1 F 0.59612(13) 0.4667(2) 0.14403(12) 0.0765(6) Uani 1 1 d . . . 
N1 N 0.33461(12) 0.52722(14) 0.15370(12) 0.0254(4) Uani 1 1 d . . . 
C1 C 0.35942(14) 0.46801(16) 0.08201(13) 0.0221(4) Uani 1 1 d . . . 
N2 N 0.29538(12) 0.38305(15) 0.07037(12) 0.0262(4) Uani 1 1 d . . . 
C2 C 0.25638(15) 0.48033(19) 0.18309(15) 0.0311(5) Uani 1 1 d . . . 
H2 H 0.2256 0.5064 0.2307 0.037 Uiso 1 1 calc R . . 
N3 N 0.42795(12) 0.48746(15) 0.03767(12) 0.0266(4) Uani 1 1 d . . . 
C3 C 0.23265(15) 0.3924(2) 0.13233(16) 0.0322(5) Uani 1 1 d . . . 
H3 H 0.1819 0.3446 0.1375 0.039 Uiso 1 1 calc R . . 
C4 C 0.36816(14) 0.63601(17) 0.17661(15) 0.0266(4) Uani 1 1 d . . . 
C5 C 0.33439(16) 0.72269(19) 0.12059(16) 0.0328(5) Uani 1 1 d . . . 
C6 C 0.37130(18) 0.8265(2) 0.14094(18) 0.0392(6) Uani 1 1 d . . . 
H6 H 0.3503 0.8870 0.1037 0.047 Uiso 1 1 calc R . . 
C7 C 0.43801(18) 0.8427(2) 0.21441(18) 0.0406(6) Uani 1 1 d . . . 
H7 H 0.4639 0.9137 0.2262 0.049 Uiso 1 1 calc R . . 
C8 C 0.46741(17) 0.7571(2) 0.27072(17) 0.0382(5) Uani 1 1 d . . . 
H8 H 0.5117 0.7703 0.3223 0.046 Uiso 1 1 calc R . . 
C9 C 0.43320(16) 0.65091(19) 0.25326(15) 0.0317(5) Uani 1 1 d . . . 
C10 C 0.25704(18) 0.7065(2) 0.0422(2) 0.0459(6) Uani 1 1 d . . . 
H10 H 0.2459 0.6257 0.0356 0.055 Uiso 1 1 calc R . . 
C11 C 0.2811(2) 0.7479(3) -0.0460(2) 0.0646(9) Uani 1 1 d . . . 
H11A H 0.2303 0.7304 -0.0939 0.097 Uiso 1 1 calc R . . 
H11B H 0.3386 0.7128 -0.0589 0.097 Uiso 1 1 calc R . . 
H11C H 0.2900 0.8276 -0.0428 0.097 Uiso 1 1 calc R . . 
C12 C 0.1674(2) 0.7577(4) 0.0646(3) 0.0862(14) Uani 1 1 d . . . 
H12A H 0.1744 0.8377 0.0679 0.129 Uiso 1 1 calc R . . 
H12B H 0.1541 0.7297 0.1226 0.129 Uiso 1 1 calc R . . 
H12C H 0.1159 0.7388 0.0178 0.129 Uiso 1 1 calc R . . 
C13 C 0.4628(2) 0.5575(2) 0.31720(19) 0.0467(7) Uani 1 1 d . . . 
H13 H 0.4445 0.4869 0.2858 0.056 Uiso 1 1 calc R . . 
C14 C 0.5684(2) 0.5553(3) 0.3472(2) 0.0572(8) Uani 1 1 d . . . 
H14A H 0.6010 0.5558 0.2943 0.086 Uiso 1 1 calc R . . 
H14B H 0.5850 0.4887 0.3824 0.086 Uiso 1 1 calc R . . 
H14C H 0.5867 0.6200 0.3842 0.086 Uiso 1 1 calc R . . 
C15 C 0.4122(2) 0.5658(4) 0.3991(3) 0.0755(12) Uani 1 1 d . . . 
H15A H 0.4304 0.6338 0.4316 0.113 Uiso 1 1 calc R . . 
H15B H 0.4287 0.5028 0.4385 0.113 Uiso 1 1 calc R . . 
H15C H 0.3448 0.5661 0.3798 0.113 Uiso 1 1 calc R . . 
C16 C 0.28824(15) 0.30048(19) 0.00155(15) 0.0298(5) Uani 1 1 d . . . 
C17 C 0.22162(18) 0.3154(2) -0.07392(17) 0.0445(6) Uani 1 1 d . . . 
C18 C 0.2130(2) 0.2320(3) -0.1378(2) 0.0646(9) Uani 1 1 d . . . 
H18 H 0.1685 0.2388 -0.1901 0.077 Uiso 1 1 calc R . . 
C19 C 0.2676(3) 0.1407(3) -0.1263(2) 0.0698(11) Uani 1 1 d . . . 
H19 H 0.2600 0.0845 -0.1705 0.084 Uiso 1 1 calc R . . 
C20 C 0.3340(2) 0.1281(2) -0.0516(2) 0.0549(8) Uani 1 1 d . . . 
H20 H 0.3717 0.0641 -0.0454 0.066 Uiso 1 1 calc R . . 
C21 C 0.34593(17) 0.20873(19) 0.01467(17) 0.0359(5) Uani 1 1 d . . . 
C22 C 0.1606(2) 0.4166(3) -0.0868(2) 0.0571(8) Uani 1 1 d . . . 
H22 H 0.1814 0.4684 -0.0365 0.069 Uiso 1 1 calc R . . 
C23 C 0.0583(2) 0.3865(4) -0.0820(3) 0.0852(13) Uani 1 1 d . . . 
H23A H 0.0368 0.3337 -0.1295 0.128 Uiso 1 1 calc R . . 
H23B H 0.0198 0.4529 -0.0901 0.128 Uiso 1 1 calc R . . 
H23C H 0.0531 0.3539 -0.0234 0.128 Uiso 1 1 calc R . . 
C24 C 0.1699(3) 0.4753(4) -0.1748(3) 0.0869(14) Uani 1 1 d . . . 
H24A H 0.1516 0.4254 -0.2252 0.130 Uiso 1 1 calc R . . 
H24B H 0.2347 0.4981 -0.1748 0.130 Uiso 1 1 calc R . . 
H24C H 0.1294 0.5400 -0.1808 0.130 Uiso 1 1 calc R . . 
C25 C 0.41787(18) 0.1989(2) 0.09715(18) 0.0412(6) Uani 1 1 d . . . 
H25 H 0.4434 0.2738 0.1125 0.049 Uiso 1 1 calc R . . 
C26 C 0.4990(2) 0.1241(3) 0.0826(3) 0.0607(8) Uani 1 1 d . . . 
H26A H 0.4779 0.0476 0.0793 0.091 Uiso 1 1 calc R . . 
H26B H 0.5494 0.1326 0.1328 0.091 Uiso 1 1 calc R . . 
H26C H 0.5219 0.1442 0.0265 0.091 Uiso 1 1 calc R . . 
C27 C 0.3729(2) 0.1569(3) 0.1769(2) 0.0571(8) Uani 1 1 d . . . 
H27A H 0.3241 0.2081 0.1893 0.086 Uiso 1 1 calc R . . 
H27B H 0.4203 0.1512 0.2298 0.086 Uiso 1 1 calc R . . 
H27C H 0.3454 0.0844 0.1626 0.086 Uiso 1 1 calc R . . 
 
loop_ 
 _atom_site_aniso_label 
 _atom_site_aniso_U_11 
 _atom_site_aniso_U_22 
 _atom_site_aniso_U_33 
 _atom_site_aniso_U_23 
 _atom_site_aniso_U_13 
 _atom_site_aniso_U_12 
Ge1 0.03422(19) 0.0536(2) 0.0377(2) -0.01717(12) 0.01908(13) -0.02007(12) 
F1 0.0459(10) 0.147(2) 0.0366(9) 0.0108(11) 0.0041(7) 0.0089(11) 
N1 0.0250(8) 0.0257(9) 0.0271(9) -0.0016(7) 0.0094(7) -0.0033(7) 
C1 0.0220(9) 0.0230(10) 0.0217(9) 0.0010(8) 0.0045(7) -0.0029(8) 
N2 0.0240(8) 0.0278(9) 0.0286(9) -0.0024(7) 0.0102(7) -0.0061(7) 
C2 0.0295(11) 0.0339(12) 0.0332(11) -0.0007(9) 0.0165(9) -0.0028(9) 
N3 0.0247(9) 0.0295(9) 0.0275(9) -0.0018(7) 0.0099(7) -0.0071(7) 
C3 0.0268(11) 0.0351(11) 0.0379(12) 0.0008(10) 0.0163(9) -0.0069(9) 
C4 0.0257(10) 0.0253(10) 0.0311(11) -0.0027(8) 0.0123(8) -0.0015(8) 
C5 0.0292(11) 0.0311(11) 0.0393(13) 0.0020(10) 0.0091(9) 0.0007(9) 
C6 0.0419(13) 0.0281(11) 0.0492(15) 0.0046(10) 0.0125(11) 0.0012(10) 
C7 0.0441(14) 0.0278(12) 0.0523(15) -0.0070(11) 0.0151(11) -0.0055(10) 
C8 0.0380(12) 0.0388(13) 0.0382(13) -0.0103(10) 0.0066(10) -0.0044(10) 
C9 0.0327(11) 0.0320(11) 0.0316(11) -0.0037(9) 0.0083(9) -0.0005(9) 
C10 0.0401(14) 0.0386(13) 0.0551(16) 0.0121(12) -0.0077(12) -0.0019(11) 
C11 0.0458(16) 0.101(3) 0.0453(17) 0.0054(17) -0.0008(13) 0.0044(17) 
C12 0.0333(15) 0.155(4) 0.070(2) 0.038(3) 0.0071(15) 0.005(2) 
C13 0.0571(17) 0.0378(13) 0.0404(14) 0.0002(11) -0.0102(12) -0.0022(12) 
C14 0.0562(18) 0.074(2) 0.0402(15) -0.0001(14) 0.0005(13) 0.0211(16) 
C15 0.0523(19) 0.111(3) 0.062(2) 0.045(2) 0.0029(16) -0.0084(19) 
C16 0.0290(10) 0.0347(11) 0.0280(11) -0.0055(9) 0.0122(8) -0.0133(9) 
C17 0.0368(13) 0.0615(17) 0.0352(13) -0.0039(12) 0.0054(10) -0.0195(12) 
C18 0.0553(18) 0.095(3) 0.0425(16) -0.0199(17) 0.0047(13) -0.0295(19) 
C19 0.070(2) 0.083(3) 0.061(2) -0.0434(19) 0.0260(17) -0.036(2) 
C20 0.0581(17) 0.0437(15) 0.070(2) -0.0227(14) 0.0326(16) -0.0165(13) 
C21 0.0386(12) 0.0311(11) 0.0427(13) -0.0074(10) 0.0223(10) -0.0123(10) 
C22 0.0399(15) 0.077(2) 0.0509(17) 0.0102(15) -0.0067(13) -0.0077(14) 
C23 0.0419(18) 0.119(3) 0.092(3) 0.019(3) 0.0025(18) -0.002(2) 
C24 0.059(2) 0.122(4) 0.074(2) 0.041(3) -0.0104(18) -0.010(2) 
C25 0.0448(14) 0.0320(12) 0.0488(15) 0.0047(11) 0.0140(11) 0.0016(10) 
C26 0.0563(18) 0.0531(18) 0.078(2) 0.0162(16) 0.0278(16) 0.0150(15) 
C27 0.071(2) 0.0539(17) 0.0504(17) 0.0123(14) 0.0230(15) 0.0170(15) 
 
_geom_special_details 
; 
 All esds (except the esd in the dihedral angle between two l.s. planes) 
 are estimated using the full covariance matrix.  The cell esds are taken 
 into account individually in the estimation of esds in distances, angles 
 and torsion angles; correlations between esds in cell parameters are only 
 used when they are defined by crystal symmetry.  An approximate (isotropic) 
 treatment of cell esds is used for estimating esds involving l.s. planes. 
; 
 
loop_ 
 _geom_bond_atom_site_label_1 
 _geom_bond_atom_site_label_2 
 _geom_bond_distance 
 _geom_bond_site_symmetry_2 
 _geom_bond_publ_flag 
Ge1 F1 1.837(2) . ? 
Ge1 N3 1.9888(18) 3_665 ? 
Ge1 N3 1.9967(17) . ? 
N1 C1 1.386(3) . ? 
N1 C2 1.395(3) . ? 
N1 C4 1.438(3) . ? 
C1 N3 1.293(3) . ? 
C1 N2 1.386(3) . ? 
N2 C3 1.394(3) . ? 
N2 C16 1.437(3) . ? 
C2 C3 1.333(3) . ? 
N3 Ge1 1.9888(18) 3_665 ? 
C4 C9 1.397(3) . ? 
C4 C5 1.397(3) . ? 
C5 C6 1.391(3) . ? 
C5 C10 1.524(3) . ? 
C6 C7 1.379(4) . ? 
C7 C8 1.374(4) . ? 
C8 C9 1.398(3) . ? 
C9 C13 1.514(3) . ? 
C10 C11 1.506(4) . ? 
C10 C12 1.521(5) . ? 
C13 C15 1.522(5) . ? 
C13 C14 1.536(4) . ? 
C16 C21 1.394(4) . ? 
C16 C17 1.397(4) . ? 
C17 C18 1.393(4) . ? 
C17 C22 1.514(5) . ? 
C18 C19 1.363(6) . ? 
C19 C20 1.384(5) . ? 
C20 C21 1.393(4) . ? 
C21 C25 1.511(4) . ? 
C22 C24 1.527(5) . ? 
C22 C23 1.539(4) . ? 
C25 C27 1.531(4) . ? 
C25 C26 1.528(4) . ? 
 
loop_ 
 _geom_angle_atom_site_label_1 
 _geom_angle_atom_site_label_2 
 _geom_angle_atom_site_label_3 
 _geom_angle 
 _geom_angle_site_symmetry_1 
 _geom_angle_site_symmetry_3 
 _geom_angle_publ_flag 
F1 Ge1 N3 92.47(8) . 3_665 ? 
F1 Ge1 N3 91.02(9) . . ? 
N3 Ge1 N3 78.79(7) 3_665 . ? 
C1 N1 C2 110.08(17) . . ? 
C1 N1 C4 123.45(16) . . ? 
C2 N1 C4 124.36(17) . . ? 
N3 C1 N2 128.40(19) . . ? 
N3 C1 N1 127.36(18) . . ? 
N2 C1 N1 104.23(16) . . ? 
C1 N2 C3 109.99(18) . . ? 
C1 N2 C16 126.47(17) . . ? 
C3 N2 C16 123.41(18) . . ? 
C3 C2 N1 107.71(19) . . ? 
C1 N3 Ge1 130.33(14) . 3_665 ? 
C1 N3 Ge1 127.98(15) . . ? 
Ge1 N3 Ge1 101.21(7) 3_665 . ? 
C2 C3 N2 107.98(19) . . ? 
C9 C4 C5 122.7(2) . . ? 
C9 C4 N1 119.03(19) . . ? 
C5 C4 N1 118.28(19) . . ? 
C6 C5 C4 117.6(2) . . ? 
C6 C5 C10 120.5(2) . . ? 
C4 C5 C10 121.9(2) . . ? 
C7 C6 C5 120.8(2) . . ? 
C8 C7 C6 120.6(2) . . ? 
C7 C8 C9 121.0(2) . . ? 
C4 C9 C8 117.2(2) . . ? 
C4 C9 C13 121.8(2) . . ? 
C8 C9 C13 121.0(2) . . ? 
C11 C10 C12 111.5(3) . . ? 
C11 C10 C5 113.8(2) . . ? 
C12 C10 C5 109.6(3) . . ? 
C9 C13 C15 109.8(3) . . ? 
C9 C13 C14 112.6(2) . . ? 
C15 C13 C14 109.6(2) . . ? 
C21 C16 C17 123.6(2) . . ? 
C21 C16 N2 118.5(2) . . ? 
C17 C16 N2 117.9(2) . . ? 
C18 C17 C16 116.9(3) . . ? 
C18 C17 C22 120.7(3) . . ? 
C16 C17 C22 122.4(2) . . ? 
C19 C18 C17 120.8(3) . . ? 
C18 C19 C20 121.4(3) . . ? 
C19 C20 C21 120.4(3) . . ? 
C16 C21 C20 116.9(3) . . ? 
C16 C21 C25 120.8(2) . . ? 
C20 C21 C25 122.3(3) . . ? 
C17 C22 C24 111.8(3) . . ? 
C17 C22 C23 110.5(3) . . ? 
C24 C22 C23 110.7(3) . . ? 
C21 C25 C27 110.5(2) . . ? 
C21 C25 C26 112.8(2) . . ? 
C27 C25 C26 109.4(2) . . ? 
 
_diffrn_measured_fraction_theta_max    0.999 
_diffrn_reflns_theta_full              67.49 
_diffrn_measured_fraction_theta_full   0.999 
_refine_diff_density_max    1.677 
_refine_diff_density_min   -0.770 
_refine_diff_density_rms    0.059 
